2025-04-30 17:25:09,921 - INFO - --- optimisation run for ERCOT ---
2025-04-30 17:25:09,924 - INFO - Loaded required df_price_hourly (8760 rows) from Price_hourly.csv
2025-04-30 17:25:09,931 - INFO - Loaded required df_ANSprice_hourly (8760 rows) from Price_ANS_hourly.csv
2025-04-30 17:25:09,932 - INFO - Loaded required df_system (45 rows) from sys_data_advanced.csv
2025-04-30 17:25:09,932 - INFO - Optional file ../input/hourly_data/ERCOT/MileageMultiplier_hourly.csv not found, skipping.
2025-04-30 17:25:09,935 - INFO - Loaded optional df_ANSdeploy_hourly (8760 rows) from DeploymentFactor_hourly.csv
2025-04-30 17:25:09,935 - INFO - Creating STANDARDIZED model for ERCOT...
2025-04-30 17:25:09,936 - INFO - Loading parameters...
2025-04-30 17:25:09,939 - WARNING - Implicitly replacing the Component attribute pTurbine_min (type=<class 'pyomo.core.base.param.ScalarParam'>) on block Optimize_Profit_Standardized_ERCOT with a new Component (type=<class 'pyomo.core.base.param.ScalarParam'>).
This is usually indicative of a modelling error.
To avoid this warning, use block.del_component() and block.add_component().
2025-04-30 17:25:09,939 - WARNING - Implicitly replacing the Component attribute pTurbine_max (type=<class 'pyomo.core.base.param.ScalarParam'>) on block Optimize_Profit_Standardized_ERCOT with a new Component (type=<class 'pyomo.core.base.param.ScalarParam'>).
This is usually indicative of a modelling error.
To avoid this warning, use block.del_component() and block.add_component().
2025-04-30 17:25:09,939 - INFO - Enabled non-linear turbine efficiency.
2025-04-30 17:25:09,939 - INFO - Loaded electrolyzer piecewise parameters (ke, kt).
2025-04-30 17:25:09,993 - INFO - Loading AS parameters for ERCOT...
2025-04-30 17:25:10,942 - INFO - Defining variables...
2025-04-30 17:25:11,181 - INFO - Defining constraints...
2025-04-30 17:25:11,953 - WARNING - Using PLACEHOLDER linear efficiency for H2 production constraint.
2025-04-30 17:25:11,975 - WARNING - Using PLACEHOLDER linear efficiency for steam consumption constraint.
2025-04-30 17:25:11,975 - INFO - Building piece‑wise constraints for TurbinePower using SOS2
2025-04-30 17:25:12,017 - WARNING - DEPRECATED: The 'ordered' attribute is no longer supported.  Use
isordered()  (deprecated in 5.7)
(called from /home/honglin/NPPH2/src/constraints.py:22)
2025-04-30 17:25:14,578 - INFO - Defining objective function (Maximize Profit)...
2025-04-30 17:25:14,941 - INFO - Standardized model created successfully.
2025-04-30 17:25:14,953 - INFO - Set parameter Username
2025-04-30 17:25:14,958 - INFO - Academic license - for non-commercial use only - expires 2026-04-25
2025-04-30 17:25:21,440 - INFO - Read LP format model from file /tmp/tmpqheud8mp.pyomo.lp
2025-04-30 17:25:21,440 - INFO - Reading time = 0.58 seconds
2025-04-30 17:25:21,440 - INFO - x1: 359148 rows, 324118 columns, 989840 nonzeros
2025-04-30 17:25:21,440 - INFO - Gurobi Optimizer version 12.0.1 build v12.0.1rc0 (linux64 - "Ubuntu 22.04.5 LTS")
2025-04-30 17:25:21,440 - INFO - 
2025-04-30 17:25:21,440 - INFO - CPU model: AMD Ryzen Threadripper PRO 5995WX 64-Cores, instruction set [SSE2|AVX|AVX2]
2025-04-30 17:25:21,440 - INFO - Thread count: 64 physical cores, 128 logical processors, using up to 32 threads
2025-04-30 17:25:21,440 - INFO - 
2025-04-30 17:25:21,440 - INFO - Optimize a model with 359148 rows, 324118 columns and 989840 nonzeros
2025-04-30 17:25:21,452 - INFO - Model fingerprint: 0xfa99ff1c
2025-04-30 17:25:21,452 - INFO - Model has 26280 quadratic constraints
2025-04-30 17:25:21,452 - INFO - Model has 8760 SOS constraints
2025-04-30 17:25:21,452 - INFO - Variable types: 297838 continuous, 26280 integer (26280 binary)
2025-04-30 17:25:21,454 - INFO - Coefficient statistics:
2025-04-30 17:25:21,454 - INFO -   Matrix range     [1e+00, 1e+03]
2025-04-30 17:25:21,454 - INFO -   QMatrix range    [2e-07, 1e+00]
2025-04-30 17:25:21,454 - INFO -   QLMatrix range   [5e-02, 1e+00]
2025-04-30 17:25:21,454 - INFO -   Objective range  [2e-02, 2e+05]
2025-04-30 17:25:21,454 - INFO -   Bounds range     [1e+00, 2e+04]
2025-04-30 17:25:21,454 - INFO -   RHS range        [1e+00, 2e+04]
2025-04-30 17:25:22,781 - INFO - Presolve removed 254051 rows and 236546 columns
2025-04-30 17:25:22,781 - INFO - Presolve time: 1.32s
2025-04-30 17:25:22,784 - INFO - Presolved: 166377 rows, 105082 columns, 455343 nonzeros
2025-04-30 17:25:22,971 - INFO - Variable types: 87563 continuous, 17519 integer (17519 binary)
2025-04-30 17:25:24,360 - INFO - 
2025-04-30 17:25:24,360 - INFO - Deterministic concurrent LP optimizer: primal and dual simplex (primal and dual model)
2025-04-30 17:25:24,360 - INFO - Showing primal log only...
2025-04-30 17:25:24,360 - INFO - 
2025-04-30 17:25:24,655 - INFO - Root relaxation presolved: 131375 rows, 87581 columns, 385336 nonzeros
2025-04-30 17:25:24,655 - INFO - 
2025-04-30 17:25:25,580 - INFO - Concurrent spin time: 0.80s (can be avoided by choosing Method=3)
2025-04-30 17:25:25,580 - INFO - 
2025-04-30 17:25:25,580 - INFO - Solved with primal simplex
2025-04-30 17:25:25,581 - INFO - 
2025-04-30 17:25:25,581 - INFO - Root relaxation: objective 1.034831e+08, 26272 iterations, 1.22 seconds (0.30 work units)
2025-04-30 17:25:25,691 - INFO - 
2025-04-30 17:25:25,692 - INFO -     Nodes    |    Current Node    |     Objective Bounds      |     Work
2025-04-30 17:25:25,692 - INFO -  Expl Unexpl |  Obj  Depth IntInf | Incumbent    BestBd   Gap | It/Node Time
2025-04-30 17:25:25,692 - INFO - 
2025-04-30 17:25:25,692 - INFO - *    0     0               0    1.034831e+08 1.0348e+08  0.00%     -    4s
2025-04-30 17:25:25,783 - INFO - 
2025-04-30 17:25:25,784 - INFO - Explored 1 nodes (26272 simplex iterations) in 4.34 seconds (5.67 work units)
2025-04-30 17:25:25,784 - INFO - Thread count was 32 (of 128 available processors)
2025-04-30 17:25:25,784 - INFO - 
2025-04-30 17:25:25,784 - INFO - Solution count 1: 1.03483e+08 
2025-04-30 17:25:25,784 - INFO - 
2025-04-30 17:25:25,784 - INFO - Optimal solution found (tolerance 1.00e-04)
2025-04-30 17:25:25,787 - INFO - Best objective 1.034831375446e+08, best bound 1.034831375446e+08, gap 0.0000%
2025-04-30 17:25:26,934 - INFO - Extracting comprehensive results for ERCOT (Actual Power Mode)...
2025-04-30 17:25:26,937 - INFO - Extracting hourly variables...
2025-04-30 17:25:27,089 - INFO - Extracting component AS bids...
2025-04-30 17:25:27,168 - INFO - Extracting total AS bids...
2025-04-30 17:25:27,208 - INFO - Extracting input prices and factors...
2025-04-30 17:25:27,353 - INFO - Calculating deployed AS amounts...
2025-04-30 17:25:27,483 - INFO - Calculating hourly revenues...
2025-04-30 17:25:27,735 - INFO - Calculating hourly costs...
2025-04-30 17:25:27,737 - INFO - Calculating hourly profit...
2025-04-30 17:25:27,737 - INFO - Calculating summary statistics...
2025-04-30 17:25:28,151 - INFO - Comprehensive hourly results saved to ../Results_Standardized/ERCOT_Hourly_Results_Comprehensive.csv
2025-04-30 17:25:28,151 - INFO - Summary results saved to ../Results_Standardized/ERCOT_Summary_Results.txt
2025-04-30 17:25:28,280 - INFO - Optimisation finished – Profit = $103483137.54
2025-04-30 17:25:28,280 - INFO - Log saved to ../logs/CAISO_optimization_standardized.log
